25
    1    20    20
    2     5     5
    3     1     1
    4     1     1
    5    11    11
    6     3     3
    7     8     8
    8     3     3
    9     1     1
   10    20    20
   11    18    18
   12    16    16
   13     6     6
   14    16    16
   15    12    12
   16    10    10
   17     2     2
   18     1     1
   19     3     3
   20     5     5
   21     4     4
   22    14    14
   23    16    16
   24    10    10
   25    13    13
98
